Ordem de visita dos vértices
1
14
17
22
33
28
21
27
48
53
51
37
55
41
38
58
46
35
30
64
81
97
96
88
83
70
68
34
32
31
67
92
95
77
61
66
42
54
40
43
49
107
117
116
133
121
112
128
136
143
151
152
157
142
145
140
146
137
109
102
103
91
75
74
57
45
50
10
12
25
5
3
87
62
23
76
59
111
90
164
130
104
156
161
20
94
163
172
86
65
63
98
101
89
99
85
36
82
80
7
2
4
60
69
78
126
114
138
148
129
124
135
120
106
93
73
79
39
29
18
24
26
13
8
6
16
11
52
56
123
131
155
154
147
108
105
44
110
115
150
144
134
139
149
132
125
113
72
141
47
71
169
175
181
177
168
158
191
166
162
171
186
192
193
188
189
165
170
167
178
174
179
184
180
159
183
100
194
122
160
119
118
176
182
187
190
185
84
173
19
9
15
127
153
1
